
Gurobi 6.0.2 (win64) logging started 06/02/15 11:34:03

Read LP format model from file C:\MT\repository\VRPTWMS\instances\mip\toCalculate\DK_Instance1_h1250_No_1.lp
Reading time = 0.01 seconds
(null): 521 rows, 287 columns, 2243 nonzeros
Optimize a model with 521 rows, 287 columns and 2243 nonzeros
Model has 1100 quadratic constraints
WARNING: Only barrier available for SOCP models
Coefficient statistics:
  Matrix range    [1e+00, 2e+02]
  Objective range [9e-01, 1e+02]
  Bounds range    [1e+00, 1e+02]
  RHS range       [1e+00, 2e+02]
Presolve removed 37 rows and 39 columns
Presolve time: 0.07s
Presolved: 2510 rows, 1275 columns, 12340 nonzeros
Variable types: 949 continuous, 326 integer (283 binary)
Found heuristic solution: objective 879.1000000
Optimize a model with 2510 rows, 1275 columns and 12340 nonzeros
Coefficient statistics:
  Matrix range    [1e+00, 2e+02]
  Objective range [9e-01, 1e+02]
  Bounds range    [1e+00, 1e+02]
  RHS range       [1e+00, 1e+02]

Concurrent LP optimizer: dual simplex and barrier
Showing barrier log only...

Presolve removed 185 rows and 116 columns
Presolved: 2325 rows, 1159 columns, 11549 nonzeros

Root barrier log...

Ordering time: 0.00s

Barrier performed 0 iterations in 0.10 seconds
Barrier solve interrupted - model solved by another algorithm


Solved with dual simplex
Solved in 104 iterations and 0.11 seconds
Optimal objective  2.810723237e+01

Root relaxation: objective 2.810723e+01, 104 iterations, 0.03 seconds

    Nodes    |    Current Node    |     Objective Bounds      |     Work
 Expl Unexpl |  Obj  Depth IntInf | Incumbent    BestBd   Gap | It/Node Time

     0     0   28.10723    0   36  879.10000   28.10723  96.8%     -    0s
     0     0  128.30632    0   60  879.10000  128.30632  85.4%     -    0s
     0     0  130.44500    0   28  879.10000  130.44500  85.2%     -    0s
     0     0  130.47200    0   48  879.10000  130.47200  85.2%     -    0s
H    0     0                     672.0400000  130.47200  80.6%     -    0s
     0     0  130.51250    0   41  672.04000  130.51250  80.6%     -    0s
     0     0  130.51250    0   43  672.04000  130.51250  80.6%     -    0s
     0     0  130.51250    0   41  672.04000  130.51250  80.6%     -    0s
     0     2  130.51250    0   37  672.04000  130.51250  80.6%     -    0s
H  744   426                     565.4800000  135.50167  76.0%  31.3    3s
   754   432  406.09579   11   71  565.48000  136.38844  75.9%  30.9    5s
H  761   414                     565.0300000  138.25625  75.5%  30.6    6s
H  772   400                     564.0300000  160.20600  71.6%  30.2    7s
   787   410  564.03000   29   87  564.03000  171.19790  69.6%  29.6   10s
  1065   503     cutoff   40       564.03000  234.78352  58.4%  57.7   15s
H 1355   502                     563.5500000  236.82333  58.0%  60.9   16s
  2060   571     cutoff   37       563.55000  241.06210  57.2%  67.0   20s
  2795   838  474.48691   32   53  563.55000  246.76250  56.2%  70.1   25s
  3530  1070  384.01930   40   69  563.55000  262.43000  53.4%  76.2   30s
  4402  1348  295.85854   42   70  563.55000  291.04979  48.4%  77.1   35s
  5131  1442  517.17500   39   59  563.55000  331.01966  41.3%  78.4   40s
  6119  1664  558.18889   37   20  563.55000  344.67442  38.8%  78.6   45s
H 6846  1794                     562.9200000  346.30852  38.5%  78.7   49s
  7096  1809  560.25240   46   19  562.92000  347.04226  38.3%  78.3   50s
  7778  1885  475.79923   44   88  562.92000  349.74755  37.9%  79.0   55s
  8653  1950  558.46756   40   43  562.92000  353.05877  37.3%  80.2   60s
  9479  1944 infeasible   38       562.92000  355.40089  36.9%  81.5   65s
H 9976  1954                     562.3200000  357.30184  36.5%  81.9   67s
H10125  1955                     562.1100000  358.05185  36.3%  81.6   68s
 10427  1927 infeasible   47       562.11000  360.49616  35.9%  81.8   70s
 11201  1872  560.39955   39   35  562.11000  370.23975  34.1%  82.9   75s
 12054  1913  488.30166   42   55  562.11000  383.22835  31.8%  83.1   80s
H13205  1895                     561.8700000  404.27493  28.0%  83.2   86s
 14002  1865  561.01359   32   48  561.87000  442.16276  21.3%  83.4   90s
 14542  1972  452.43182   42   62  561.87000  446.89589  20.5%  82.9  100s
 15542  2126  460.38105   43   56  561.87000  449.58661  20.0%  82.0  105s
 16622  2208     cutoff   43       561.87000  451.45106  19.7%  81.9  110s
 17767  2216  557.09545   35   57  561.87000  453.28290  19.3%  81.9  115s
 18684  2136     cutoff   39       561.87000  454.59000  19.1%  82.1  120s
 19749  2029  456.63658   38   82  561.87000  455.76614  18.9%  82.1  125s
 20770  1801     cutoff   36       561.87000  456.88200  18.7%  82.7  130s
 21631  1541     cutoff   40       561.87000  457.97000  18.5%  83.0  135s
 22534  1240  549.46849   45   79  561.87000  459.26102  18.3%  83.3  140s
 23440   844  464.69803   46   78  561.87000  461.18506  17.9%  83.9  145s
 24460   228  559.19177   44   37  561.87000  481.02094  14.4%  84.3  150s

Cutting planes:
  Learned: 9
  Gomory: 7
  Cover: 491
  Implied bound: 401
  Clique: 12
  MIR: 19
  Flow cover: 146
  GUB cover: 3
  Zero half: 33
  Mod-K: 1

Explored 24867 nodes (2082899 simplex iterations) in 151.10 seconds
Thread count was 2 (of 4 available processors)

Optimal solution found (tolerance 1.00e-04)
Best objective 5.618700000000e+02, best bound 5.618700000000e+02, gap 0.0%
k_c1	20.0
k_c10	12.0
k_c2	18.0
k_c3	1.0
k_c4	17.0
k_c5	20.0
k_c6	17.0
k_c7	20.0
k_c8	15.0
k_c9	3.0
k_dN	-0.0
o_1	-0.0
o_10	-0.0
o_2	-0.0
o_3	1.0
o_4	-0.0
o_5	-0.0
o_6	-0.0
o_7	-0.0
o_8	-0.0
o_9	-0.0
p_1	-0.0
p_10	1.0
p_2	1.0
p_3	1.0
p_4	-0.0
p_5	-0.0
p_6	-0.0
p_7	1.0
p_8	-0.0
p_9	-0.0
phi_c1	76.0
phi_c10	-0.0
phi_c2	-0.0
phi_c3	-0.0
phi_c4	53.0
phi_c5	35.0
phi_c6	28.0
phi_c7	24.0
phi_c8	49.0
phi_c9	46.0
phi_dN	-0.0
tauD_c1	10.0
tauD_c10	53.0
tauD_c2	43.0
tauD_c3	66.0
tauD_c4	73.0
tauD_c5	26.0
tauD_c6	37.0
tauD_c7	13.0
tauD_c8	39.0
tauD_c9	83.0
tauD_d0	-0.0
tauD_dN	100.0
tauS_c1	85.0
tauS_c10	47.0
tauS_c2	43.0
tauS_c3	66.0
tauS_c4	22.0
tauS_c5	69.0
tauS_c6	70.0
tauS_c7	18.0
tauS_c8	22.0
tauS_c9	83.0
tauS_d0	-0.0
tauS_dN	91.0
x_c10_c1	0.0
x_c10_c2	0.0
x_c10_c3	0.0
x_c10_c4	0.0
x_c10_c5	0.0
x_c10_c6	-0.0
x_c10_c7	-0.0
x_c10_c8	-0.0
x_c10_c9	1.0
x_c10_dN	-0.0
x_c1_c10	-0.0
x_c1_c2	-0.0
x_c1_c3	0.0
x_c1_c4	0.0
x_c1_c5	0.0
x_c1_c6	1.0
x_c1_c7	-0.0
x_c1_c8	0.0
x_c1_c9	-0.0
x_c1_dN	-0.0
x_c2_c1	-0.0
x_c2_c10	-0.0
x_c2_c3	0.0
x_c2_c4	1.0
x_c2_c5	-0.0
x_c2_c6	0.0
x_c2_c7	0.0
x_c2_c8	0.0
x_c2_c9	0.0
x_c2_dN	0.0
x_c3_c1	0.0
x_c3_c10	0.0
x_c3_c2	0.0
x_c3_c4	0.0
x_c3_c5	0.0
x_c3_c6	-0.0
x_c3_c7	-0.0
x_c3_c8	-0.0
x_c3_c9	0.0
x_c3_dN	1.0
x_c4_c1	0.0
x_c4_c10	0.0
x_c4_c2	0.0
x_c4_c3	-0.0
x_c4_c5	-0.0
x_c4_c6	0.0
x_c4_c7	0.0
x_c4_c8	0.0
x_c4_c9	-0.0
x_c4_dN	1.0
x_c5_c1	0.0
x_c5_c10	0.0
x_c5_c2	1.0
x_c5_c3	-0.0
x_c5_c4	0.0
x_c5_c6	0.0
x_c5_c7	-0.0
x_c5_c8	-0.0
x_c5_c9	0.0
x_c5_dN	-0.0
x_c6_c1	-0.0
x_c6_c10	1.0
x_c6_c2	0.0
x_c6_c3	-0.0
x_c6_c4	0.0
x_c6_c5	0.0
x_c6_c7	0.0
x_c6_c8	0.0
x_c6_c9	-0.0
x_c6_dN	-0.0
x_c7_c1	-0.0
x_c7_c10	-0.0
x_c7_c2	-0.0
x_c7_c3	0.0
x_c7_c4	0.0
x_c7_c5	0.0
x_c7_c6	0.0
x_c7_c8	1.0
x_c7_c9	-0.0
x_c7_dN	-0.0
x_c8_c1	0.0
x_c8_c10	0.0
x_c8_c2	0.0
x_c8_c3	1.0
x_c8_c4	0.0
x_c8_c5	0.0
x_c8_c6	0.0
x_c8_c7	0.0
x_c8_c9	-0.0
x_c8_dN	-0.0
x_c9_c1	0.0
x_c9_c10	0.0
x_c9_c2	0.0
x_c9_c3	0.0
x_c9_c4	0.0
x_c9_c5	0.0
x_c9_c6	-0.0
x_c9_c7	-0.0
x_c9_c8	0.0
x_c9_dN	1.0
x_d0_c1	1.0
x_d0_c10	-0.0
x_d0_c2	-0.0
x_d0_c3	0.0
x_d0_c4	0.0
x_d0_c5	1.0
x_d0_c6	0.0
x_d0_c7	1.0
x_d0_c8	-0.0
x_d0_c9	0.0
z_c10_c1	0.0
z_c10_c2	0.0
z_c10_c3	0.0
z_c10_c4	0.0
z_c10_c5	0.0
z_c10_c6	0.0
z_c10_c7	0.0
z_c10_c8	0.0
z_c10_c9	-0.0
z_c10_dN	1.0
z_c1_c10	-0.0
z_c1_c2	0.0
z_c1_c3	0.0
z_c1_c4	0.0
z_c1_c5	0.0
z_c1_c6	-0.0
z_c1_c7	-0.0
z_c1_c8	0.0
z_c1_c9	-0.0
z_c1_dN	0.0
z_c2_c1	0.0
z_c2_c10	0.0
z_c2_c3	1.0
z_c2_c4	0.0
z_c2_c5	-0.0
z_c2_c6	0.0
z_c2_c7	0.0
z_c2_c8	-0.0
z_c2_c9	0.0
z_c2_dN	0.0
z_c3_c1	0.0
z_c3_c10	0.0
z_c3_c2	0.0
z_c3_c4	-0.0
z_c3_c5	0.0
z_c3_c6	0.0
z_c3_c7	0.0
z_c3_c8	-0.0
z_c3_c9	0.0
z_c3_dN	1.0
z_c4_c1	-0.0
z_c4_c10	0.0
z_c4_c2	-0.0
z_c4_c3	-0.0
z_c4_c5	-0.0
z_c4_c6	-0.0
z_c4_c7	0.0
z_c4_c8	-0.0
z_c4_c9	0.0
z_c4_dN	0.0
z_c5_c1	0.0
z_c5_c10	0.0
z_c5_c2	-0.0
z_c5_c3	-0.0
z_c5_c4	0.0
z_c5_c6	0.0
z_c5_c7	0.0
z_c5_c8	-0.0
z_c5_c9	0.0
z_c5_dN	0.0
z_c6_c1	-0.0
z_c6_c10	0.0
z_c6_c2	0.0
z_c6_c3	0.0
z_c6_c4	0.0
z_c6_c5	0.0
z_c6_c7	-0.0
z_c6_c8	0.0
z_c6_c9	-0.0
z_c6_dN	0.0
z_c7_c1	-0.0
z_c7_c10	1.0
z_c7_c2	0.0
z_c7_c3	0.0
z_c7_c4	-0.0
z_c7_c5	0.0
z_c7_c6	-0.0
z_c7_c8	-0.0
z_c7_c9	0.0
z_c7_dN	0.0
z_c8_c1	-0.0
z_c8_c10	-0.0
z_c8_c2	0.0
z_c8_c3	-0.0
z_c8_c4	-0.0
z_c8_c5	0.0
z_c8_c6	-0.0
z_c8_c7	-0.0
z_c8_c9	0.0
z_c8_dN	0.0
z_c9_c1	-0.0
z_c9_c10	0.0
z_c9_c2	0.0
z_c9_c3	0.0
z_c9_c4	0.0
z_c9_c5	0.0
z_c9_c6	-0.0
z_c9_c7	-0.0
z_c9_c8	0.0
z_c9_dN	-0.0
z_d0_c1	0.0
z_d0_c10	0.0
z_d0_c2	1.0
z_d0_c3	0.0
z_d0_c4	0.0
z_d0_c5	0.0
z_d0_c6	0.0
z_d0_c7	1.0
z_d0_c8	0.0
z_d0_c9	0.0
z_d0_dN	0.0
